p cnf 174 680
-1 -33 0
-2 -33 0
1 2 33 0
1 2 -34 0
-1 -2 -34 0
-1 2 34 0
1 -2 34 0
33 -35 0
-3 -35 0
3 -33 35 0
3 -33 -36 0
-3 33 -36 0
3 33 36 0
-3 -33 36 0
35 -37 0
-4 -37 0
4 -35 37 0
4 -35 -38 0
-4 35 -38 0
4 35 38 0
-4 -35 38 0
37 -39 0
-5 -39 0
5 -37 39 0
5 -37 -40 0
-5 37 -40 0
5 37 40 0
-5 -37 40 0
39 -41 0
-6 -41 0
6 -39 41 0
6 -39 -42 0
-6 39 -42 0
6 39 42 0
-6 -39 42 0
41 -43 0
-7 -43 0
7 -41 43 0
7 -41 -44 0
-7 41 -44 0
7 41 44 0
-7 -41 44 0
43 -45 0
-8 -45 0
8 -43 45 0
8 -43 -46 0
-8 43 -46 0
8 43 46 0
-8 -43 46 0
2 -47 0
1 -47 0
-1 -2 47 0
-1 -2 -48 0
1 2 -48 0
1 -2 48 0
-1 2 48 0
-2 -3 49 0
-3 -47 49 0
-2 -47 49 0
2 3 -49 0
3 47 -49 0
2 47 -49 0
3 -49 -50 0
2 -49 -50 0
47 -49 -50 0
-3 49 50 0
-2 49 50 0
-47 49 50 0
-2 -3 -47 50 0
2 3 47 -50 0
-3 -4 51 0
-4 -49 51 0
-3 -49 51 0
3 4 -51 0
4 49 -51 0
3 49 -51 0
4 -51 -52 0
3 -51 -52 0
49 -51 -52 0
-4 51 52 0
-3 51 52 0
-49 51 52 0
-3 -4 -49 52 0
3 4 49 -52 0
-4 -5 53 0
-5 -51 53 0
-4 -51 53 0
4 5 -53 0
5 51 -53 0
4 51 -53 0
5 -53 -54 0
4 -53 -54 0
51 -53 -54 0
-5 53 54 0
-4 53 54 0
-51 53 54 0
-4 -5 -51 54 0
4 5 51 -54 0
-5 -6 55 0
-6 -53 55 0
-5 -53 55 0
5 6 -55 0
6 53 -55 0
5 53 -55 0
6 -55 -56 0
5 -55 -56 0
53 -55 -56 0
-6 55 56 0
-5 55 56 0
-53 55 56 0
-5 -6 -53 56 0
5 6 53 -56 0
-6 -7 57 0
-7 -55 57 0
-6 -55 57 0
6 7 -57 0
7 55 -57 0
6 55 -57 0
7 -57 -58 0
6 -57 -58 0
55 -57 -58 0
-7 57 58 0
-6 57 58 0
-55 57 58 0
-6 -7 -55 58 0
6 7 55 -58 0
-7 -8 59 0
-8 -57 59 0
-7 -57 59 0
7 8 -59 0
8 57 -59 0
7 57 -59 0
8 -59 -60 0
7 -59 -60 0
57 -59 -60 0
-8 59 60 0
-7 59 60 0
-57 59 60 0
-7 -8 -57 60 0
7 8 57 -60 0
8 -61 0
59 -61 0
-8 -59 61 0
-8 -59 -62 0
8 59 -62 0
-8 59 62 0
8 -59 62 0
-1 -63 0
-48 -63 0
1 48 63 0
1 48 -64 0
-1 -48 -64 0
-1 48 64 0
1 -48 64 0
63 -65 0
-50 -65 0
50 -63 65 0
50 -63 -66 0
-50 63 -66 0
50 63 66 0
-50 -63 66 0
65 -67 0
-52 -67 0
52 -65 67 0
52 -65 -68 0
-52 65 -68 0
52 65 68 0
-52 -65 68 0
67 -69 0
-54 -69 0
54 -67 69 0
54 -67 -70 0
-54 67 -70 0
54 67 70 0
-54 -67 70 0
69 -71 0
-56 -71 0
56 -69 71 0
56 -69 -72 0
-56 69 -72 0
56 69 72 0
-56 -69 72 0
71 -73 0
-58 -73 0
58 -71 73 0
58 -71 -74 0
-58 71 -74 0
58 71 74 0
-58 -71 74 0
73 -75 0
-60 -75 0
60 -73 75 0
60 -73 -76 0
-60 73 -76 0
60 73 76 0
-60 -73 76 0
75 -77 0
-62 -77 0
62 -75 77 0
62 -75 -78 0
-62 75 -78 0
62 75 78 0
-62 -75 78 0
77 -79 0
-61 -79 0
61 -77 79 0
61 -77 -80 0
-61 77 -80 0
61 77 80 0
-61 -77 80 0
-9 -81 0
-10 -81 0
9 10 81 0
9 10 -82 0
-9 -10 -82 0
-9 10 82 0
9 -10 82 0
81 -83 0
-11 -83 0
11 -81 83 0
11 -81 -84 0
-11 81 -84 0
11 81 84 0
-11 -81 84 0
83 -85 0
-12 -85 0
12 -83 85 0
12 -83 -86 0
-12 83 -86 0
12 83 86 0
-12 -83 86 0
85 -87 0
-13 -87 0
13 -85 87 0
13 -85 -88 0
-13 85 -88 0
13 85 88 0
-13 -85 88 0
87 -89 0
-14 -89 0
14 -87 89 0
14 -87 -90 0
-14 87 -90 0
14 87 90 0
-14 -87 90 0
89 -91 0
-15 -91 0
15 -89 91 0
15 -89 -92 0
-15 89 -92 0
15 89 92 0
-15 -89 92 0
91 -93 0
-16 -93 0
16 -91 93 0
16 -91 -94 0
-16 91 -94 0
16 91 94 0
-16 -91 94 0
10 -95 0
9 -95 0
-9 -10 95 0
-9 -10 -96 0
9 10 -96 0
9 -10 96 0
-9 10 96 0
-10 -11 97 0
-11 -95 97 0
-10 -95 97 0
10 11 -97 0
11 95 -97 0
10 95 -97 0
11 -97 -98 0
10 -97 -98 0
95 -97 -98 0
-11 97 98 0
-10 97 98 0
-95 97 98 0
-10 -11 -95 98 0
10 11 95 -98 0
-11 -12 99 0
-12 -97 99 0
-11 -97 99 0
11 12 -99 0
12 97 -99 0
11 97 -99 0
12 -99 -100 0
11 -99 -100 0
97 -99 -100 0
-12 99 100 0
-11 99 100 0
-97 99 100 0
-11 -12 -97 100 0
11 12 97 -100 0
-12 -13 101 0
-13 -99 101 0
-12 -99 101 0
12 13 -101 0
13 99 -101 0
12 99 -101 0
13 -101 -102 0
12 -101 -102 0
99 -101 -102 0
-13 101 102 0
-12 101 102 0
-99 101 102 0
-12 -13 -99 102 0
12 13 99 -102 0
-13 -14 103 0
-14 -101 103 0
-13 -101 103 0
13 14 -103 0
14 101 -103 0
13 101 -103 0
14 -103 -104 0
13 -103 -104 0
101 -103 -104 0
-14 103 104 0
-13 103 104 0
-101 103 104 0
-13 -14 -101 104 0
13 14 101 -104 0
-14 -15 105 0
-15 -103 105 0
-14 -103 105 0
14 15 -105 0
15 103 -105 0
14 103 -105 0
15 -105 -106 0
14 -105 -106 0
103 -105 -106 0
-15 105 106 0
-14 105 106 0
-103 105 106 0
-14 -15 -103 106 0
14 15 103 -106 0
-15 -16 107 0
-16 -105 107 0
-15 -105 107 0
15 16 -107 0
16 105 -107 0
15 105 -107 0
16 -107 -108 0
15 -107 -108 0
105 -107 -108 0
-16 107 108 0
-15 107 108 0
-105 107 108 0
-15 -16 -105 108 0
15 16 105 -108 0
16 -109 0
107 -109 0
-16 -107 109 0
-16 -107 -110 0
16 107 -110 0
-16 107 110 0
16 -107 110 0
102 -111 0
9 -111 0
-9 -102 111 0
-9 -102 -112 0
9 102 -112 0
9 -102 112 0
-9 102 112 0
-10 -104 113 0
-104 -111 113 0
-10 -111 113 0
10 104 -113 0
104 111 -113 0
10 111 -113 0
104 -113 -114 0
10 -113 -114 0
111 -113 -114 0
-104 113 114 0
-10 113 114 0
-111 113 114 0
-10 -104 -111 114 0
10 104 111 -114 0
-11 -106 115 0
-106 -113 115 0
-11 -113 115 0
11 106 -115 0
106 113 -115 0
11 113 -115 0
106 -115 -116 0
11 -115 -116 0
113 -115 -116 0
-106 115 116 0
-11 115 116 0
-113 115 116 0
-11 -106 -113 116 0
11 106 113 -116 0
-12 -108 117 0
-108 -115 117 0
-12 -115 117 0
12 108 -117 0
108 115 -117 0
12 115 -117 0
108 -117 -118 0
12 -117 -118 0
115 -117 -118 0
-108 117 118 0
-12 117 118 0
-115 117 118 0
-12 -108 -115 118 0
12 108 115 -118 0
-13 -110 119 0
-110 -117 119 0
-13 -117 119 0
13 110 -119 0
110 117 -119 0
13 117 -119 0
110 -119 -120 0
13 -119 -120 0
117 -119 -120 0
-110 119 120 0
-13 119 120 0
-117 119 120 0
-13 -110 -117 120 0
13 110 117 -120 0
-14 -109 121 0
-109 -119 121 0
-14 -119 121 0
14 109 -121 0
109 119 -121 0
14 119 -121 0
109 -121 -122 0
14 -121 -122 0
119 -121 -122 0
-109 121 122 0
-14 121 122 0
-119 121 122 0
-14 -109 -119 122 0
14 109 119 -122 0
15 -123 0
121 -123 0
-15 -121 123 0
-15 -121 -124 0
15 121 -124 0
-15 121 124 0
15 -121 124 0
16 -125 0
123 -125 0
-16 -123 125 0
-16 -123 -126 0
16 123 -126 0
-16 123 126 0
16 -123 126 0
-9 -127 0
-96 -127 0
9 96 127 0
9 96 -128 0
-9 -96 -128 0
-9 96 128 0
9 -96 128 0
127 -129 0
-98 -129 0
98 -127 129 0
98 -127 -130 0
-98 127 -130 0
98 127 130 0
-98 -127 130 0
129 -131 0
-100 -131 0
100 -129 131 0
100 -129 -132 0
-100 129 -132 0
100 129 132 0
-100 -129 132 0
131 -133 0
-112 -133 0
112 -131 133 0
112 -131 -134 0
-112 131 -134 0
112 131 134 0
-112 -131 134 0
133 -135 0
-114 -135 0
114 -133 135 0
114 -133 -136 0
-114 133 -136 0
114 133 136 0
-114 -133 136 0
135 -137 0
-116 -137 0
116 -135 137 0
116 -135 -138 0
-116 135 -138 0
116 135 138 0
-116 -135 138 0
137 -139 0
-118 -139 0
118 -137 139 0
118 -137 -140 0
-118 137 -140 0
118 137 140 0
-118 -137 140 0
139 -141 0
-120 -141 0
120 -139 141 0
120 -139 -142 0
-120 139 -142 0
120 139 142 0
-120 -139 142 0
141 -143 0
-122 -143 0
122 -141 143 0
122 -141 -144 0
-122 141 -144 0
122 141 144 0
-122 -141 144 0
143 -145 0
-124 -145 0
124 -143 145 0
124 -143 -146 0
-124 143 -146 0
124 143 146 0
-124 -143 146 0
145 -147 0
-126 -147 0
126 -145 147 0
126 -145 -148 0
-126 145 -148 0
126 145 148 0
-126 -145 148 0
147 -149 0
-125 -149 0
125 -147 149 0
125 -147 -150 0
-125 147 -150 0
125 147 150 0
-125 -147 150 0
1 -151 0
96 -151 0
-1 -96 151 0
-1 -96 -152 0
1 96 -152 0
-1 96 152 0
1 -96 152 0
-48 -98 153 0
-48 -151 153 0
-98 -151 153 0
48 98 -153 0
48 151 -153 0
98 151 -153 0
48 -153 -154 0
98 -153 -154 0
151 -153 -154 0
-48 153 154 0
-98 153 154 0
-151 153 154 0
-48 -98 -151 154 0
48 98 151 -154 0
-50 -100 155 0
-50 -153 155 0
-100 -153 155 0
50 100 -155 0
50 153 -155 0
100 153 -155 0
50 -155 -156 0
100 -155 -156 0
153 -155 -156 0
-50 155 156 0
-100 155 156 0
-153 155 156 0
-50 -100 -153 156 0
50 100 153 -156 0
-52 -112 157 0
-52 -155 157 0
-112 -155 157 0
52 112 -157 0
52 155 -157 0
112 155 -157 0
52 -157 -158 0
112 -157 -158 0
155 -157 -158 0
-52 157 158 0
-112 157 158 0
-155 157 158 0
-52 -112 -155 158 0
52 112 155 -158 0
-54 -114 159 0
-54 -157 159 0
-114 -157 159 0
54 114 -159 0
54 157 -159 0
114 157 -159 0
54 -159 -160 0
114 -159 -160 0
157 -159 -160 0
-54 159 160 0
-114 159 160 0
-157 159 160 0
-54 -114 -157 160 0
54 114 157 -160 0
-56 -116 161 0
-56 -159 161 0
-116 -159 161 0
56 116 -161 0
56 159 -161 0
116 159 -161 0
56 -161 -162 0
116 -161 -162 0
159 -161 -162 0
-56 161 162 0
-116 161 162 0
-159 161 162 0
-56 -116 -159 162 0
56 116 159 -162 0
-58 -118 163 0
-58 -161 163 0
-118 -161 163 0
58 118 -163 0
58 161 -163 0
118 161 -163 0
58 -163 -164 0
118 -163 -164 0
161 -163 -164 0
-58 163 164 0
-118 163 164 0
-161 163 164 0
-58 -118 -161 164 0
58 118 161 -164 0
-60 -120 165 0
-60 -163 165 0
-120 -163 165 0
60 120 -165 0
60 163 -165 0
120 163 -165 0
60 -165 -166 0
120 -165 -166 0
163 -165 -166 0
-60 165 166 0
-120 165 166 0
-163 165 166 0
-60 -120 -163 166 0
60 120 163 -166 0
-62 -122 167 0
-62 -165 167 0
-122 -165 167 0
62 122 -167 0
62 165 -167 0
122 165 -167 0
62 -167 -168 0
122 -167 -168 0
165 -167 -168 0
-62 167 168 0
-122 167 168 0
-165 167 168 0
-62 -122 -165 168 0
62 122 165 -168 0
-61 -124 169 0
-61 -167 169 0
-124 -167 169 0
61 124 -169 0
61 167 -169 0
124 167 -169 0
61 -169 -170 0
124 -169 -170 0
167 -169 -170 0
-61 169 170 0
-124 169 170 0
-167 169 170 0
-61 -124 -167 170 0
61 124 167 -170 0
126 -171 0
169 -171 0
-126 -169 171 0
-126 -169 -172 0
126 169 -172 0
-126 169 172 0
126 -169 172 0
125 -173 0
171 -173 0
-125 -171 173 0
-125 -171 -174 0
125 171 -174 0
-125 171 174 0
125 -171 174 0
0
c main::$tmp::return_value_nondet_char!0@1#1 17 18 19 20 21 22 23 24
c symex::nondet1 9 10 11 12 13 14 15 16
c symex::nondet0 1 2 3 4 5 6 7 8
c main::$tmp::return_value_nondet_char$0!0@1#2 9 10 11 12 13 14 15 16
c __CPROVER_rounding_mode!0#1 FALSE FALSE FALSE FALSE FALSE FALSE FALSE FALSE FALSE FALSE FALSE FALSE FALSE FALSE FALSE FALSE FALSE FALSE FALSE FALSE FALSE FALSE FALSE FALSE FALSE FALSE FALSE FALSE FALSE FALSE FALSE FALSE
c main::$tmp::return_value_nondet_char$0!0@1#1 25 26 27 28 29 30 31 32
c __CPROVER_memory_leak#1 FALSE FALSE FALSE FALSE FALSE FALSE FALSE FALSE FALSE FALSE FALSE FALSE FALSE FALSE FALSE FALSE FALSE FALSE FALSE FALSE FALSE FALSE FALSE FALSE FALSE FALSE FALSE FALSE FALSE FALSE FALSE FALSE FALSE FALSE FALSE FALSE FALSE FALSE FALSE FALSE FALSE FALSE FALSE FALSE FALSE FALSE FALSE FALSE FALSE FALSE FALSE FALSE FALSE FALSE FALSE FALSE FALSE FALSE FALSE FALSE FALSE FALSE FALSE FALSE
c __CPROVER_max_malloc_size#1 FALSE FALSE FALSE FALSE FALSE FALSE FALSE FALSE FALSE FALSE FALSE FALSE FALSE FALSE FALSE FALSE FALSE FALSE FALSE FALSE FALSE FALSE FALSE FALSE FALSE FALSE FALSE FALSE FALSE FALSE FALSE FALSE FALSE FALSE FALSE FALSE FALSE FALSE FALSE FALSE FALSE FALSE FALSE FALSE FALSE FALSE FALSE FALSE FALSE FALSE FALSE FALSE FALSE FALSE FALSE TRUE FALSE FALSE FALSE FALSE FALSE FALSE FALSE FALSE
c __CPROVER_deallocated#1 FALSE FALSE FALSE FALSE FALSE FALSE FALSE FALSE FALSE FALSE FALSE FALSE FALSE FALSE FALSE FALSE FALSE FALSE FALSE FALSE FALSE FALSE FALSE FALSE FALSE FALSE FALSE FALSE FALSE FALSE FALSE FALSE FALSE FALSE FALSE FALSE FALSE FALSE FALSE FALSE FALSE FALSE FALSE FALSE FALSE FALSE FALSE FALSE FALSE FALSE FALSE FALSE FALSE FALSE FALSE FALSE FALSE FALSE FALSE FALSE FALSE FALSE FALSE FALSE
c main::$tmp::return_value_nondet_char!0@1#2 1 2 3 4 5 6 7 8
c __CPROVER_dead_object#1 FALSE FALSE FALSE FALSE FALSE FALSE FALSE FALSE FALSE FALSE FALSE FALSE FALSE FALSE FALSE FALSE FALSE FALSE FALSE FALSE FALSE FALSE FALSE FALSE FALSE FALSE FALSE FALSE FALSE FALSE FALSE FALSE FALSE FALSE FALSE FALSE FALSE FALSE FALSE FALSE FALSE FALSE FALSE FALSE FALSE FALSE FALSE FALSE FALSE FALSE FALSE FALSE FALSE FALSE FALSE FALSE FALSE FALSE FALSE FALSE FALSE FALSE FALSE FALSE
